
Log started (V12.9.0.0) Wed Oct  7 00:29:49 2020

New value for parallel optimization mode: -1
New value for mixed integer optimality gap tolerance: 0.01
New value for integrality tolerance: 1e-09
New value for feasibility tolerance: 0.1
New value for deterministic time limit in ticks: 100000

Problem 'C:\Users\llavin\Desktop\test919\logs\tmpo7nig5ur.pyomo.lp' read.
Read time = 0.25 sec. (13.88 ticks)
MIP start file 'C:\Users\llavin\Desktop\test919\logs\tmp4nv8rupr.cplex.mst' read.

Problem name         : C:\Users\llavin\Desktop\test919\logs\tmpo7nig5ur.pyomo.lp
Objective sense      : Maximize
Variables            :   54041  [Nneg: 1,  Box: 22526,  Free: 4416,
                                 Binary: 27098]
Objective nonzeros   :    9749
Linear constraints   :  122164  [Less: 40983,  Greater: 58612,  Equal: 22569]
  Nonzeros           :  288457
  RHS nonzeros       :   66982

Variables            : Min LB: -5000.000        Max UB: 1000000.       
Objective nonzeros   : Min   : 0.2250000        Max   : 2500.000       
Linear constraints   :
  Nonzeros           : Min   : 0.2250000        Max   : 1000000.       
  RHS nonzeros       : Min   : 0.2250000        Max   : 1000000.       
CPXPARAM_Parallel                                -1
CPXPARAM_Simplex_Tolerances_Feasibility          0.10000000000000001
CPXPARAM_DetTimeLimit                            100000
CPXPARAM_MIP_Tolerances_MIPGap                   0.01
CPXPARAM_MIP_Tolerances_Integrality              1.0000000000000001e-09
Warning:  No solution found from 1 MIP starts.
Retaining values of one MIP start for possible repair.
Tried aggregator 3 times.
MIP Presolve eliminated 88110 rows and 19710 columns.
MIP Presolve added 3354 rows and 0 columns.
MIP Presolve modified 23554 coefficients.
Aggregator did 12847 substitutions.
Reduced MIP has 24561 rows, 20928 columns, and 68772 nonzeros.
Reduced MIP has 8288 binaries, 0 generals, 0 SOSs, and 0 indicators.
Presolve time = 0.30 sec. (173.49 ticks)
Probing fixed 427 vars, tightened 2863 bounds.
Probing time = 1.22 sec. (893.01 ticks)
Tried aggregator 2 times.
MIP Presolve eliminated 953 rows and 855 columns.
MIP Presolve modified 2212 coefficients.
Aggregator did 40 substitutions.
Reduced MIP has 23568 rows, 20033 columns, and 65886 nonzeros.
Reduced MIP has 7861 binaries, 0 generals, 0 SOSs, and 0 indicators.
Presolve time = 0.11 sec. (67.78 ticks)
Probing time = 0.05 sec. (15.54 ticks)
Clique table members: 6264.
MIP emphasis: balance optimality and feasibility.
MIP search method: dynamic search.
Parallel mode: opportunistic, using up to 32 threads.
Root relaxation solution time = 0.42 sec. (461.15 ticks)

        Nodes                                         Cuts/
   Node  Left     Objective  IInf  Best Integer    Best Bound    ItCnt     Gap

      0     0      196.6264   740                    196.6264     4037         
      0     0      196.6264   654                   Cuts: 951     4383         
      0     0      196.6264   525                   Cuts: 639     4583         
      0     0      196.6264   456                   Cuts: 334     4658         
      0     0      196.6264   448                   Cuts: 206     4695         
      0     0      196.6264   426                   Cuts: 198     4725         
      0     0      196.6264   411                   Cuts: 152     4747         
      0     0      196.6264   402                   Cuts: 221     4758         
      0     0      196.6264   395                   Cuts: 203     4768         
      0     0      196.6264   395                   Cuts: 191     4771         
Repair heuristic found nothing.
      0     2      196.6264   395                     Cuts: 5     4771         
Elapsed time = 11.52 sec. (6555.10 ticks, tree = 0.02 MB, solutions = 0)
    490   186   -24097.3041   376                    196.6264     5820         
    912   365   -18933.7789   369                    196.6264     7682         
   1147   935      196.6264   387                    196.6264    14210         
   1770  1861      196.6264   385                    196.6264    17015         
   2946  1621   -41943.9464   312                    196.6264    16870         
   4133  1307      196.6264   348                    196.6264    16617         
   5213  1581   -30888.3129   319                    196.6264    16749         
   6045  4360      196.6264   335                    196.6264    24418         
   6833  4530  -391753.8480   130                    196.6264    25501         
  10191  6732      196.6264   338                    196.6264    31529         
Elapsed time = 27.77 sec. (9656.41 ticks, tree = 51.08 MB, solutions = 0)
* 11007+10497                      -520160.6010      196.6264           100.04%
* 11906  9210      integral     0  -455280.5426      196.6264    44124  100.04%
  15203 10529      196.6264   384  -455280.5426      196.6264    47563  100.04%
  17241 13995    -2806.3389   372    -3159.7164      196.6264    56468  106.22%
  19301 13672   -23685.4322   310    -3159.7164      196.6264    53483  106.22%
  21495 13569    -2851.2837   358    -3159.7164      196.6264    55893  106.22%
  24288 10346      196.6264   345    -3159.7164      196.6264    62474  106.22%
  27183 14345      196.6264   240    -3159.7164      196.6264    73260  106.22%
  29276 14219    -2639.4649   270    -3159.7164      196.6264    72730  106.22%
  29623 14788        cutoff          -3159.7164      196.6264    74513  106.22%
Elapsed time = 52.42 sec. (17793.99 ticks, tree = 134.99 MB, solutions = 3)
  29624 21575        cutoff          -3159.7164       14.0527    93074  100.44%
